Casos de prueba/Caso1.dzn
% Generado automaticamente desde C:/Users/Daniel/OneDrive/Desktop/Universidad/Semestre 6.1/ADA2/Proyecto 2/Polarizacion/Casos de prueba/Caso1.txt

n = 12;
m = 3;
ct = 18.0;
maxMovs = 6.0;
mediana = 0.55;

v = [0.1, 0.55, 0.9];
p = [4, 5, 3];
s = [| 2, 1, 1 | 1, 3, 1 | 0, 2, 1 |];
