Casos de prueba/Caso1.txt
12
3
4,5,3
0.10,0.55,0.90
2,1,1
1,3,1
0,2,1
18
6
